357
750
525	4
524	5
523	3
522	3
521	2
519	1
517	3
516	2
515	4
514	3
513	6
512	2
511	1
509	7
508	4
507	2
506	3
505	2
504	2
503	3
502	3
501	1
500	4
499	2
498	2
497	1
496	1
495	4
494	3
493	3
492	1
491	5
489	5
488	3
487	1
486	4
485	3
484	2
483	2
482	2
481	1
480	4
479	1
478	3
477	1
476	3
475	7
474	4
473	3
472	4
471	1
470	1
469	2
467	3
466	2
465	2
464	4
463	1
462	2
461	5
460	1
459	2
458	1
457	2
456	3
454	2
453	3
452	3
451	1
449	4
448	5
447	5
446	1
445	4
444	7
443	1
442	2
441	2
440	2
439	2
438	4
437	1
436	5
435	3
434	6
433	2
432	3
431	5
430	2
429	1
428	2
427	5
426	3
425	3
424	2
423	2
421	1
420	3
419	4
418	4
417	2
416	2
415	4
414	2
413	2
412	2
411	6
410	6
409	1
408	7
407	4
406	3
405	4
404	2
403	1
402	3
401	1
400	5
399	2
398	4
397	4
396	1
395	3
394	5
393	2
392	1
391	5
390	3
389	1
388	3
387	3
386	3
385	1
384	3
383	2
382	1
381	1
380	2
379	2
378	2
377	3
376	3
375	5
374	4
373	1
372	2
371	2
370	4
369	4
368	2
367	2
366	3
365	2
364	4
363	3
362	3
361	1
360	1
359	1
358	4
357	3
356	4
355	1
354	4
353	4
352	2
351	6
350	3
349	2
348	1
347	2
345	5
344	4
343	1
342	3
341	2
340	2
339	3
338	3
337	4
336	1
335	2
333	4
332	3
331	3
330	6
329	3
328	1
327	1
326	1
325	1
324	7
323	4
322	1
321	3
320	1
319	6
318	2
316	4
315	2
314	5
313	3
312	6
311	4
310	3
309	1
308	4
307	3
306	3
305	2
304	3
302	1
301	3
299	3
298	4
297	7
296	3
295	3
294	1
293	2
292	3
291	3
289	4
288	6
286	2
285	2
284	5
283	1
282	4
281	4
280	3
279	2
278	4
277	3
276	5
274	1
273	2
272	3
271	4
270	2
269	1
268	4
266	5
265	5
264	3
263	1
262	3
261	1
260	3
259	1
258	2
257	4
256	1
255	4
254	1
253	5
252	8
251	2
250	2
249	1
248	2
247	4
246	6
245	3
244	4
243	1
241	3
240	4
239	2
238	1
237	3
236	4
235	3
234	2
233	1
232	3
231	1
230	2
229	4
228	2
227	4
226	1
225	3
224	2
223	3
222	2
221	2
220	7
219	3
218	3
217	2
216	5
215	1
214	1
213	2
212	3
211	3
210	2
209	3
208	1
207	2
206	4
205	1
204	2
203	1
202	3
201	6
200	3
199	5
198	3
197	5
196	4
195	1
194	1
193	1
192	3
191	2
190	1
189	5
188	4
187	1
186	3
185	3
184	1
183	4
182	1
181	4
180	6
179	1
178	3
177	2
176	4
175	1
174	1
173	1
172	4
171	3
170	3
169	3
168	2
167	2
166	4
165	3
164	2
163	2
162	1
161	1
160	3
159	4
158	2
157	2
156	2
155	2
154	2
153	3
152	1
150	2
